rows = 11;
cols = 12;
fixed = [(4,12,ne),(3,12,ns),(2,4,se),(3,5,ew),(3,7,ns),(4,3,sw),(6,7,se),(11,6,nw),(11,11,nw),(10,12,ew)];
row_counts = [3,6,8,8,6,5,3,4,4,6,8];
col_counts = [4,8,3,5,5,5,9,4,8,3,3,4];
